examples/ex1.dimacs
p cnf 5 4
-1 2 0
1 -2 0
1 4 0
3 0
5 0
